(set-logic HORN)
(declare-fun state (Int (Array Int Int) (Array Int Int) (Array Int Int) (Array Int Int) Int Int (Array Int Int) (Array Int Int) Int Int Int Int Int Int Int Int Int Int Int Int Int Int Int Int Int Int Int Bool Bool Bool Bool (Array Int Int)) Bool)
(assert (forall ((|hhv_ULTIMATE.start_L6_0_Int| Int) (|hhv_ULTIMATE.start_L6_1_Array_Int_Int| (Array Int Int)) (|hhv_ULTIMATE.start_L6_2_Array_Int_Int| (Array Int Int)) (|hhv_ULTIMATE.start_L6_3_Array_Int_Array_Int_Int| (Array Int Int)) (|hhv_ULTIMATE.start_L6_4_Array_Int_Array_Int_Int| (Array Int Int)) (|hhv_ULTIMATE.start_L6_5_Int| Int) (|hhv_ULTIMATE.start_L6_6_Int| Int) (|hhv_ULTIMATE.start_L6_7_Array_Int_Int| (Array Int Int)) (|hhv_ULTIMATE.start_L6_8_Array_Int_Int| (Array Int Int)) (|hhv_ULTIMATE.start_L6_9_Int| Int) (|hhv_ULTIMATE.start_L6_10_Int| Int) (|hhv_ULTIMATE.start_L6_11_Int| Int) (|hbv_ULTIMATE.start_L26-3_12_Int| Int) (|hhv_ULTIMATE.start_L6_13_Int| Int) (|hhv_ULTIMATE.start_L6_14_Int| Int) (|hhv_ULTIMATE.start_L6_15_Int| Int) (|hhv_ULTIMATE.start_L6_16_Int| Int) (|hhv_ULTIMATE.start_L6_17_Int| Int) (|hhv_ULTIMATE.start_L6_18_Int| Int) (|hhv_ULTIMATE.start_L6_19_Int| Int) (|hhv_ULTIMATE.start_L6_20_Int| Int) (|hhv_ULTIMATE.start_L6_21_Int| Int) (|hhv_ULTIMATE.start_L6_22_Int| Int) (|hhv_ULTIMATE.start_L6_23_Int| Int) (|hbv_ULTIMATE.start_L26-3_24_Int| Int) (|hhv_ULTIMATE.start_L6_25_Int| Int) (|hhv_ULTIMATE.start_L6_26_Int| Int) (|hhv_ULTIMATE.start_L6_27_Int| Int) (|hhv_ULTIMATE.start_L6_28_Bool| Bool) (|.loc.4| Bool) (|.loc.5| Bool) (|.loc.6| Bool) (|hbv_ULTIMATE.start_L-1_1_Array_Int_Int| (Array Int Int)) (|.x.350| Int) (|.x.348| (Array Int Int)) (|.x.346| Int) (|.x.344| (Array Int Int)) (|.x.340| Int) (|.x.342| (Array Int Int)) (|.x.352| Int) (|.x.364| Int) (|hhv_ULTIMATE.start_ULTIMATE.startEXIT_28_Bool| Bool) (|.x.341| (Array Int Int)) (|.x.359| Int) (|.x.360| Int) (|.x.362| Int) (|.x.365| Int) (|.loc.8| Bool) (|.x.354| Int) (|.x.353| Int) (|.x.356| Int) (|.x.357| Int) (|.x.361| Int) (|.x.366| Int) (|.loc.9| Bool) (|.loc.7| Bool) (|.x.355| Int) (|.x.343| (Array Int Int)) (|.x.363| Int) (|.x.367| Int) (|.x.351| Int) (|.x.358| Int) (|.x.349| Int) (|.x.345| Int) (|.x.347| (Array Int Int)) (|.xtv.1| (Array Int Int))) (=> (and (and (and (not .loc.5) (not .loc.4)) (not .loc.6)) (and (and (and (and (and (= hhv_ULTIMATE.start_L6_1_Array_Int_Int hhv_ULTIMATE.start_L6_2_Array_Int_Int) (not hhv_ULTIMATE.start_L6_28_Bool)) (= hhv_ULTIMATE.start_L6_7_Array_Int_Int hhv_ULTIMATE.start_L6_8_Array_Int_Int)) (= hhv_ULTIMATE.start_L6_5_Int hhv_ULTIMATE.start_L6_6_Int)) (= hhv_ULTIMATE.start_L6_3_Array_Int_Array_Int_Int hhv_ULTIMATE.start_L6_4_Array_Int_Array_Int_Int)) (= hhv_ULTIMATE.start_L6_9_Int hhv_ULTIMATE.start_L6_10_Int))) (state |hhv_ULTIMATE.start_L6_0_Int| |hhv_ULTIMATE.start_L6_1_Array_Int_Int| |hhv_ULTIMATE.start_L6_2_Array_Int_Int| |hhv_ULTIMATE.start_L6_3_Array_Int_Array_Int_Int| |hhv_ULTIMATE.start_L6_4_Array_Int_Array_Int_Int| |hhv_ULTIMATE.start_L6_5_Int| |hhv_ULTIMATE.start_L6_6_Int| |hhv_ULTIMATE.start_L6_7_Array_Int_Int| |hhv_ULTIMATE.start_L6_8_Array_Int_Int| |hhv_ULTIMATE.start_L6_9_Int| |hhv_ULTIMATE.start_L6_10_Int| |hhv_ULTIMATE.start_L6_11_Int| |hbv_ULTIMATE.start_L26-3_12_Int| |hhv_ULTIMATE.start_L6_13_Int| |hhv_ULTIMATE.start_L6_14_Int| |hhv_ULTIMATE.start_L6_15_Int| |hhv_ULTIMATE.start_L6_16_Int| |hhv_ULTIMATE.start_L6_17_Int| |hhv_ULTIMATE.start_L6_18_Int| |hhv_ULTIMATE.start_L6_19_Int| |hhv_ULTIMATE.start_L6_20_Int| |hhv_ULTIMATE.start_L6_21_Int| |hhv_ULTIMATE.start_L6_22_Int| |hhv_ULTIMATE.start_L6_23_Int| |hbv_ULTIMATE.start_L26-3_24_Int| |hhv_ULTIMATE.start_L6_25_Int| |hhv_ULTIMATE.start_L6_26_Int| |hhv_ULTIMATE.start_L6_27_Int| |hhv_ULTIMATE.start_L6_28_Bool| |.loc.4| |.loc.5| |.loc.6| |hbv_ULTIMATE.start_L-1_1_Array_Int_Int|))))
(assert (forall ((|hhv_ULTIMATE.start_L6_0_Int| Int) (|hhv_ULTIMATE.start_L6_1_Array_Int_Int| (Array Int Int)) (|hhv_ULTIMATE.start_L6_2_Array_Int_Int| (Array Int Int)) (|hhv_ULTIMATE.start_L6_3_Array_Int_Array_Int_Int| (Array Int Int)) (|hhv_ULTIMATE.start_L6_4_Array_Int_Array_Int_Int| (Array Int Int)) (|hhv_ULTIMATE.start_L6_5_Int| Int) (|hhv_ULTIMATE.start_L6_6_Int| Int) (|hhv_ULTIMATE.start_L6_7_Array_Int_Int| (Array Int Int)) (|hhv_ULTIMATE.start_L6_8_Array_Int_Int| (Array Int Int)) (|hhv_ULTIMATE.start_L6_9_Int| Int) (|hhv_ULTIMATE.start_L6_10_Int| Int) (|hhv_ULTIMATE.start_L6_11_Int| Int) (|hbv_ULTIMATE.start_L26-3_12_Int| Int) (|hhv_ULTIMATE.start_L6_13_Int| Int) (|hhv_ULTIMATE.start_L6_14_Int| Int) (|hhv_ULTIMATE.start_L6_15_Int| Int) (|hhv_ULTIMATE.start_L6_16_Int| Int) (|hhv_ULTIMATE.start_L6_17_Int| Int) (|hhv_ULTIMATE.start_L6_18_Int| Int) (|hhv_ULTIMATE.start_L6_19_Int| Int) (|hhv_ULTIMATE.start_L6_20_Int| Int) (|hhv_ULTIMATE.start_L6_21_Int| Int) (|hhv_ULTIMATE.start_L6_22_Int| Int) (|hhv_ULTIMATE.start_L6_23_Int| Int) (|hbv_ULTIMATE.start_L26-3_24_Int| Int) (|hhv_ULTIMATE.start_L6_25_Int| Int) (|hhv_ULTIMATE.start_L6_26_Int| Int) (|hhv_ULTIMATE.start_L6_27_Int| Int) (|hhv_ULTIMATE.start_L6_28_Bool| Bool) (|.loc.4| Bool) (|.loc.5| Bool) (|.loc.6| Bool) (|hbv_ULTIMATE.start_L-1_1_Array_Int_Int| (Array Int Int)) (|.x.350| Int) (|.x.348| (Array Int Int)) (|.x.346| Int) (|.x.344| (Array Int Int)) (|.x.340| Int) (|.x.342| (Array Int Int)) (|.x.352| Int) (|.x.364| Int) (|hhv_ULTIMATE.start_ULTIMATE.startEXIT_28_Bool| Bool) (|.x.341| (Array Int Int)) (|.x.359| Int) (|.x.360| Int) (|.x.362| Int) (|.x.365| Int) (|.loc.8| Bool) (|.x.354| Int) (|.x.353| Int) (|.x.356| Int) (|.x.357| Int) (|.x.361| Int) (|.x.366| Int) (|.loc.9| Bool) (|.loc.7| Bool) (|.x.355| Int) (|.x.343| (Array Int Int)) (|.x.363| Int) (|.x.367| Int) (|.x.351| Int) (|.x.358| Int) (|.x.349| Int) (|.x.345| Int) (|.x.347| (Array Int Int)) (|.xtv.1| (Array Int Int))) (=> (and (state |hhv_ULTIMATE.start_L6_0_Int| |hhv_ULTIMATE.start_L6_1_Array_Int_Int| |hhv_ULTIMATE.start_L6_2_Array_Int_Int| |hhv_ULTIMATE.start_L6_3_Array_Int_Array_Int_Int| |hhv_ULTIMATE.start_L6_4_Array_Int_Array_Int_Int| |hhv_ULTIMATE.start_L6_5_Int| |hhv_ULTIMATE.start_L6_6_Int| |hhv_ULTIMATE.start_L6_7_Array_Int_Int| |hhv_ULTIMATE.start_L6_8_Array_Int_Int| |hhv_ULTIMATE.start_L6_9_Int| |hhv_ULTIMATE.start_L6_10_Int| |hhv_ULTIMATE.start_L6_11_Int| |hbv_ULTIMATE.start_L26-3_12_Int| |hhv_ULTIMATE.start_L6_13_Int| |hhv_ULTIMATE.start_L6_14_Int| |hhv_ULTIMATE.start_L6_15_Int| |hhv_ULTIMATE.start_L6_16_Int| |hhv_ULTIMATE.start_L6_17_Int| |hhv_ULTIMATE.start_L6_18_Int| |hhv_ULTIMATE.start_L6_19_Int| |hhv_ULTIMATE.start_L6_20_Int| |hhv_ULTIMATE.start_L6_21_Int| |hhv_ULTIMATE.start_L6_22_Int| |hhv_ULTIMATE.start_L6_23_Int| |hbv_ULTIMATE.start_L26-3_24_Int| |hhv_ULTIMATE.start_L6_25_Int| |hhv_ULTIMATE.start_L6_26_Int| |hhv_ULTIMATE.start_L6_27_Int| |hhv_ULTIMATE.start_L6_28_Bool| |.loc.4| |.loc.5| |.loc.6| |hbv_ULTIMATE.start_L-1_1_Array_Int_Int|) (let ((.def_43 (not .loc.5))) (let ((.def_44 (not .loc.4))) (let ((.def_46 (not .loc.6))) (let ((.def_79 (= .x.352 0))) (let ((.def_88 (or hhv_ULTIMATE.start_L6_28_Bool (and (= .x.352 .x.364) (= .x.364 (ite (<= 0 hhv_ULTIMATE.start_L6_16_Int) 1 0)))))) (let ((.def_92 (= hhv_ULTIMATE.start_L6_1_Array_Int_Int .x.341))) (let ((.def_95 (= hhv_ULTIMATE.start_L6_19_Int .x.359))) (let ((.def_98 (= hhv_ULTIMATE.start_L6_20_Int .x.360))) (let ((.def_101 (= hhv_ULTIMATE.start_L6_22_Int .x.362))) (let ((.def_104 (= hhv_ULTIMATE.start_L6_25_Int .x.365))) (let ((.def_116 (= hhv_ULTIMATE.start_L6_28_Bool hhv_ULTIMATE.start_ULTIMATE.startEXIT_28_Bool))) (let ((.def_118 (= hbv_ULTIMATE.start_L26-3_24_Int .x.364))) (let ((.def_120 (= hbv_ULTIMATE.start_L26-3_12_Int .x.352))) (let ((.def_128 (and hhv_ULTIMATE.start_L6_28_Bool .def_92))) (let ((.def_138 (not .loc.8))) (let ((.def_150 (<= (+ hhv_ULTIMATE.start_L6_14_Int (* (- 256) (to_int (* (/ 1 256) (to_real hhv_ULTIMATE.start_L6_14_Int))))) 57))) (let ((.def_153 (<= 48 (+ hhv_ULTIMATE.start_L6_14_Int (* (- 256) (to_int (* (/ 1 256) (to_real hhv_ULTIMATE.start_L6_14_Int)))))))) (let ((.def_162 (and .loc.5 (and .loc.4 (and .def_104 (and .def_101 (and .def_98 (and .def_92 .def_95)))))))) (let ((.def_171 (= hhv_ULTIMATE.start_L6_14_Int .x.354))) (let ((.def_173 (= hhv_ULTIMATE.start_L6_13_Int .x.353))) (let ((.def_176 (= hhv_ULTIMATE.start_L6_16_Int .x.356))) (let ((.def_179 (= hhv_ULTIMATE.start_L6_17_Int .x.357))) (let ((.def_182 (= hhv_ULTIMATE.start_L6_21_Int .x.361))) (let ((.def_185 (= hhv_ULTIMATE.start_L6_26_Int .x.366))) (let ((.def_190 (not .loc.7))) (let ((.def_227 (select hhv_ULTIMATE.start_L6_3_Array_Int_Array_Int_Int hhv_ULTIMATE.start_L6_25_Int))) (let ((.def_239 (not .loc.9))) (let ((.def_286 (= hhv_ULTIMATE.start_L6_15_Int .x.355))) (let ((.def_288 (= hhv_ULTIMATE.start_L6_3_Array_Int_Array_Int_Int .x.343))) (let ((.def_291 (= hhv_ULTIMATE.start_L6_23_Int .x.363))) (let ((.def_294 (= hhv_ULTIMATE.start_L6_27_Int .x.367))) (let ((.def_310 (= .x.356 0))) (let ((.def_314 (and .def_92 .def_173))) (let ((.def_357 (<= 11 hhv_ULTIMATE.start_L6_16_Int))) (and (and (= hhv_ULTIMATE.start_L6_10_Int .x.350) (and (= hhv_ULTIMATE.start_L6_8_Array_Int_Int .x.348) (and (= hhv_ULTIMATE.start_L6_6_Int .x.346) (and (= hhv_ULTIMATE.start_L6_4_Array_Int_Array_Int_Int .x.344) (and (= hhv_ULTIMATE.start_L6_0_Int .x.340) (= hhv_ULTIMATE.start_L6_2_Array_Int_Int .x.342)))))) (or (and (or (and (or (or (or (and (or (or (or (and (or (or (and (or (and .def_44 (and (or hhv_ULTIMATE.start_L6_28_Bool .def_79) (and (and (and (and (and (and .def_88 hhv_ULTIMATE.start_ULTIMATE.startEXIT_28_Bool) .def_92) .def_95) .def_98) .def_101) .def_104))) (and (or hhv_ULTIMATE.start_L6_28_Bool (and (= .x.341 (store hhv_ULTIMATE.start_L6_1_Array_Int_Int hhv_ULTIMATE.start_L6_25_Int 0)) (= .x.362 0))) (and (and (and (and .loc.4 (or hhv_ULTIMATE.start_ULTIMATE.startEXIT_28_Bool (= .x.359 .x.362))) .def_116) .def_118) .def_120))) (and (and .loc.6 .def_43) .loc.8)) (and .def_46 (and (and .def_120 (and .def_118 (and .def_116 (and .loc.5 (and .loc.4 (and .def_104 (and .def_101 (and .def_98 (and .def_95 .def_128))))))))) .def_138))) (and (or hhv_ULTIMATE.start_L6_28_Bool (or (not .def_150) (not .def_153))) (and .def_46 (and .def_138 (and .def_120 (and .def_118 (and .def_116 .def_162))))))) (and (and (and (and (and (and (and .def_171 .def_173) .def_176) .def_179) .def_182) .def_185) .loc.9) .def_190)) (and (or hhv_ULTIMATE.start_L6_28_Bool (and .def_153 (and (and (= .x.356 (ite (<= (+ (* 10 hhv_ULTIMATE.start_L6_16_Int) (+ .x.361 (* (- 4294967296) (to_int (+ (* (/ 5 2147483648) (to_real hhv_ULTIMATE.start_L6_16_Int)) (* (/ 1 4294967296) (to_real .x.361))))))) 2147483647) (+ (* (- 4294967296) (to_int (+ (* (/ 5 2147483648) (to_real hhv_ULTIMATE.start_L6_16_Int)) (* (/ 1 4294967296) (to_real .x.361))))) (+ .x.361 (* 10 hhv_ULTIMATE.start_L6_16_Int))) (+ (- 4294967296) (+ (* (- 4294967296) (to_int (+ (* (/ 5 2147483648) (to_real hhv_ULTIMATE.start_L6_16_Int)) (* (/ 1 4294967296) (to_real .x.361))))) (+ .x.361 (* 10 hhv_ULTIMATE.start_L6_16_Int)))))) (and (= (+ hhv_ULTIMATE.start_L6_14_Int (+ (* (- 256) (to_int (* (/ 1 256) (to_real hhv_ULTIMATE.start_L6_14_Int)))) (* (- 1) .x.361))) 48) (and .def_150 (= (+ hhv_ULTIMATE.start_L6_17_Int (* (- 1) .x.357)) (- 1))))) (= .x.354 (select .def_227 (+ hhv_ULTIMATE.start_L6_20_Int .x.357)))))) (and (and .def_46 (and .def_120 (and .def_118 (and .def_116 (and .loc.8 (and .def_162 .loc.7)))))) .def_239))) (and (or hhv_ULTIMATE.start_ULTIMATE.startEXIT_28_Bool (not .def_79)) (and .def_138 (and .def_116 (and .loc.9 (and .loc.7 (and .def_43 (and .def_44 (and .loc.6 (and .def_185 (and .def_104 (and .def_101 (and .def_182 (and .def_98 (and .def_95 (and .def_179 (and .def_176 (and .def_171 (and .def_173 (and .def_88 .def_92)))))))))))))))))))) (and .def_138 (and .loc.9 (and .loc.7 (and .def_43 (and .def_44 (and .loc.6 (and .def_185 (and .def_104 (and .def_101 (and .def_182 (and .def_98 (and .def_95 (and .def_179 (and .def_176 (and .def_171 (and .def_173 (and .def_92 (and .def_88 (and hhv_ULTIMATE.start_L6_28_Bool hhv_ULTIMATE.start_ULTIMATE.startEXIT_28_Bool)))))))))))))))))))) (and (and (and .def_286 .def_288) .def_291) .def_294)) (and (or hhv_ULTIMATE.start_L6_28_Bool (and (= hhv_ULTIMATE.start_L6_20_Int .x.367) (and (and (= hhv_ULTIMATE.start_L6_25_Int .x.355) (and (= .x.357 0) (and (= .x.354 (select (select .x.343 hhv_ULTIMATE.start_L6_25_Int) (+ hhv_ULTIMATE.start_L6_20_Int .x.357))) (= .x.343 (store hhv_ULTIMATE.start_L6_3_Array_Int_Array_Int_Int hhv_ULTIMATE.start_L6_25_Int (store .def_227 (+ hhv_ULTIMATE.start_L6_20_Int 10) 0)))))) .def_310))) (and .def_239 (and .def_46 (and .def_120 (and .def_118 (and .def_116 (and .loc.8 (and .loc.7 (and .def_44 (and .loc.5 (and .def_185 (and .def_104 (and .def_101 (and .def_182 (and .def_98 (and .def_95 .def_314))))))))))))))))) (and .def_239 (and .def_46 (and .def_120 (and .def_118 (and .def_116 (and .def_190 (and .loc.8 (and .def_43 (and .loc.4 (and .def_294 (and .def_185 (and .def_104 (and .def_291 (and .def_101 (and .def_182 (and .def_98 (and .def_95 (and .def_179 (and .def_176 (and .def_286 (and .def_171 (and .def_173 (and .def_128 .def_288)))))))))))))))))))))))) (and (or hhv_ULTIMATE.start_L6_28_Bool .def_357) (and .def_239 (and .def_46 (and .def_120 (and .def_118 (and .def_116 (and .def_190 (and .loc.8 (and .def_43 (and .loc.4 (and .def_294 (and .def_185 (and .def_104 (and .def_291 (and .def_101 (and .def_182 (and .def_98 (and .def_95 (and .def_179 (and .def_176 (and .def_286 (and .def_171 (and .def_173 (and .def_92 .def_288))))))))))))))))))))))))) (and (= hhv_ULTIMATE.start_L6_11_Int .x.351) (= hhv_ULTIMATE.start_L6_18_Int .x.358))) (and (or hhv_ULTIMATE.start_L6_28_Bool (and (and (= .x.343 (store hhv_ULTIMATE.start_L6_3_Array_Int_Array_Int_Int hhv_ULTIMATE.start_L6_25_Int (store .def_227 (+ hhv_ULTIMATE.start_L6_16_Int hhv_ULTIMATE.start_L6_20_Int) hhv_ULTIMATE.start_L6_11_Int))) (and (not .def_357) (<= (- 128) hhv_ULTIMATE.start_L6_11_Int))) (<= hhv_ULTIMATE.start_L6_11_Int 127))) (and (or hhv_ULTIMATE.start_ULTIMATE.startEXIT_28_Bool (= (+ hhv_ULTIMATE.start_L6_16_Int (* (- 1) .x.356)) (- 1))) (and .def_239 (and .def_46 (and .def_138 (and .def_120 (and .def_118 (and .def_116 (and .loc.7 (and .def_43 (and .loc.4 (and .def_294 (and .def_185 (and .def_104 (and .def_291 (and .def_101 (and .def_182 (and .def_98 (and .def_95 (and .def_179 (and .def_286 (and .def_171 .def_314))))))))))))))))))))))) (and (= hhv_ULTIMATE.start_L6_9_Int .x.349) (and (= hhv_ULTIMATE.start_L6_5_Int .x.345) (= hhv_ULTIMATE.start_L6_7_Array_Int_Int .x.347)))) (and (or hhv_ULTIMATE.start_L6_28_Bool (and (and (= .x.345 0) (= .x.349 0)) (= hbv_ULTIMATE.start_L-1_1_Array_Int_Int (store hhv_ULTIMATE.start_L6_1_Array_Int_Int 0 0)))) (and (or hhv_ULTIMATE.start_ULTIMATE.startEXIT_28_Bool (and (and (and .def_310 (and (and (and (not (<= .x.340 .x.365)) (= .x.347 (store hhv_ULTIMATE.start_L6_7_Array_Int_Int .x.365 11))) (not (= .x.365 0))) (= .x.360 0))) (= .x.341 (store hbv_ULTIMATE.start_L-1_1_Array_Int_Int .x.365 1))) (= (select hbv_ULTIMATE.start_L-1_1_Array_Int_Int .x.365) 0))) (and .def_239 (and .def_46 (and .def_138 (and .def_120 (and .def_118 (and .def_116 (and .loc.7 (and .def_43 (and .def_44 (and .def_95 .def_288))))))))))))))))))))))))))))))))))))))))))))))))) (state |.x.340| |.x.341| |.x.342| |.x.343| |.x.344| |.x.345| |.x.346| |.x.347| |.x.348| |.x.349| |.x.350| |.x.351| |.x.352| |.x.353| |.x.354| |.x.355| |.x.356| |.x.357| |.x.358| |.x.359| |.x.360| |.x.361| |.x.362| |.x.363| |.x.364| |.x.365| |.x.366| |.x.367| |hhv_ULTIMATE.start_ULTIMATE.startEXIT_28_Bool| |.loc.7| |.loc.8| |.loc.9| |.xtv.1|))))
(assert (forall ((|hhv_ULTIMATE.start_L6_0_Int| Int) (|hhv_ULTIMATE.start_L6_1_Array_Int_Int| (Array Int Int)) (|hhv_ULTIMATE.start_L6_2_Array_Int_Int| (Array Int Int)) (|hhv_ULTIMATE.start_L6_3_Array_Int_Array_Int_Int| (Array Int Int)) (|hhv_ULTIMATE.start_L6_4_Array_Int_Array_Int_Int| (Array Int Int)) (|hhv_ULTIMATE.start_L6_5_Int| Int) (|hhv_ULTIMATE.start_L6_6_Int| Int) (|hhv_ULTIMATE.start_L6_7_Array_Int_Int| (Array Int Int)) (|hhv_ULTIMATE.start_L6_8_Array_Int_Int| (Array Int Int)) (|hhv_ULTIMATE.start_L6_9_Int| Int) (|hhv_ULTIMATE.start_L6_10_Int| Int) (|hhv_ULTIMATE.start_L6_11_Int| Int) (|hbv_ULTIMATE.start_L26-3_12_Int| Int) (|hhv_ULTIMATE.start_L6_13_Int| Int) (|hhv_ULTIMATE.start_L6_14_Int| Int) (|hhv_ULTIMATE.start_L6_15_Int| Int) (|hhv_ULTIMATE.start_L6_16_Int| Int) (|hhv_ULTIMATE.start_L6_17_Int| Int) (|hhv_ULTIMATE.start_L6_18_Int| Int) (|hhv_ULTIMATE.start_L6_19_Int| Int) (|hhv_ULTIMATE.start_L6_20_Int| Int) (|hhv_ULTIMATE.start_L6_21_Int| Int) (|hhv_ULTIMATE.start_L6_22_Int| Int) (|hhv_ULTIMATE.start_L6_23_Int| Int) (|hbv_ULTIMATE.start_L26-3_24_Int| Int) (|hhv_ULTIMATE.start_L6_25_Int| Int) (|hhv_ULTIMATE.start_L6_26_Int| Int) (|hhv_ULTIMATE.start_L6_27_Int| Int) (|hhv_ULTIMATE.start_L6_28_Bool| Bool) (|.loc.4| Bool) (|.loc.5| Bool) (|.loc.6| Bool) (|hbv_ULTIMATE.start_L-1_1_Array_Int_Int| (Array Int Int)) (|.x.350| Int) (|.x.348| (Array Int Int)) (|.x.346| Int) (|.x.344| (Array Int Int)) (|.x.340| Int) (|.x.342| (Array Int Int)) (|.x.352| Int) (|.x.364| Int) (|hhv_ULTIMATE.start_ULTIMATE.startEXIT_28_Bool| Bool) (|.x.341| (Array Int Int)) (|.x.359| Int) (|.x.360| Int) (|.x.362| Int) (|.x.365| Int) (|.loc.8| Bool) (|.x.354| Int) (|.x.353| Int) (|.x.356| Int) (|.x.357| Int) (|.x.361| Int) (|.x.366| Int) (|.loc.9| Bool) (|.loc.7| Bool) (|.x.355| Int) (|.x.343| (Array Int Int)) (|.x.363| Int) (|.x.367| Int) (|.x.351| Int) (|.x.358| Int) (|.x.349| Int) (|.x.345| Int) (|.x.347| (Array Int Int)) (|.xtv.1| (Array Int Int))) (=> (state |hhv_ULTIMATE.start_L6_0_Int| |hhv_ULTIMATE.start_L6_1_Array_Int_Int| |hhv_ULTIMATE.start_L6_2_Array_Int_Int| |hhv_ULTIMATE.start_L6_3_Array_Int_Array_Int_Int| |hhv_ULTIMATE.start_L6_4_Array_Int_Array_Int_Int| |hhv_ULTIMATE.start_L6_5_Int| |hhv_ULTIMATE.start_L6_6_Int| |hhv_ULTIMATE.start_L6_7_Array_Int_Int| |hhv_ULTIMATE.start_L6_8_Array_Int_Int| |hhv_ULTIMATE.start_L6_9_Int| |hhv_ULTIMATE.start_L6_10_Int| |hhv_ULTIMATE.start_L6_11_Int| |hbv_ULTIMATE.start_L26-3_12_Int| |hhv_ULTIMATE.start_L6_13_Int| |hhv_ULTIMATE.start_L6_14_Int| |hhv_ULTIMATE.start_L6_15_Int| |hhv_ULTIMATE.start_L6_16_Int| |hhv_ULTIMATE.start_L6_17_Int| |hhv_ULTIMATE.start_L6_18_Int| |hhv_ULTIMATE.start_L6_19_Int| |hhv_ULTIMATE.start_L6_20_Int| |hhv_ULTIMATE.start_L6_21_Int| |hhv_ULTIMATE.start_L6_22_Int| |hhv_ULTIMATE.start_L6_23_Int| |hbv_ULTIMATE.start_L26-3_24_Int| |hhv_ULTIMATE.start_L6_25_Int| |hhv_ULTIMATE.start_L6_26_Int| |hhv_ULTIMATE.start_L6_27_Int| |hhv_ULTIMATE.start_L6_28_Bool| |.loc.4| |.loc.5| |.loc.6| |hbv_ULTIMATE.start_L-1_1_Array_Int_Int|) (not (and hhv_ULTIMATE.start_L6_28_Bool (and .loc.6 (and .loc.5 (not .loc.4))))))))
(check-sat)
